db/data/7927303271329112284203562635990823878.z3.out
-------------------
2500.150295028
